Minimize
Obj:
0 X11 + 11400 X12 + 23100 X13 + 3525 X14 + 13500 X15 + 19500 X16 + 23000 X17 + 22800 X18 + 
11400 X21 + 0 X22 + 8580 X23 + 520 X24 + 2800 X25 + 3270 X26 + 996 X27 + 3750 X28 + 
23100 X31 + 8580 X32 + 0 X33 + 4100 X34 + 13300 X35 + 80400 X36 + 72800 X37 + 500 X38 + 
3525 X41 + 520 X42 + 4100 X43 + 0 X44 + 11904 X45 + 22064 X46 + 17591 X47 + 2100 X48 + 
13500 X51 + 2800 X52 + 13300 X53 + 11904 X54 + 0 X55 + 44700 X56 + 23180 X57 + 16560 X58 + 
19500 X61 + 3270 X62 + 80400 X63 + 22064 X64 + 44700 X65 + 0 X66 + 33600 X67 + 25500 X68 + 
23000 X71 + 996 X72 + 72800 X73 + 17591 X74 + 23180 X75 + 33600 X76 + 0 X77 + 21390 X78 + 
22800 X81 + 3750 X82 + 500 X83 + 2100 X84 + 16560 X85 + 25500 X86 + 21390 X87 + 0 X88

Subject to
C: X11 + X12 + X13 + X14 + X15 + X16 + X17 + X18 = 1
C: X21 + X22 + X23 + X24 + X25 + X26 + X27 + X28 = 1
C: X31 + X32 + X33 + X34 + X35 + X36 + X37 + X38 = 1
C: X41 + X42 + X43 + X44 + X45 + X46 + X47 + X48 = 1
C: X51 + X52 + X53 + X54 + X55 + X56 + X57 + X58 = 1
C: X61 + X62 + X63 + X64 + X65 + X66 + X67 + X68 = 1
C: X71 + X72 + X73 + X74 + X75 + X76 + X77 + X78 = 1
C: X81 + X82 + X83 + X84 + X85 + X86 + X87 + X88 = 1

C: X11 - Y1 <= 0
C: X12 - Y2 <= 0
C: X13 - Y3 <= 0
C: X14 - Y4 <= 0
C: X15 - Y5 <= 0
C: X16 - Y6 <= 0
C: X17 - Y7 <= 0
C: X18 - Y8 <= 0
C: X21 - Y1 <= 0
C: X22 - Y2 <= 0
C: X23 - Y3 <= 0
C: X24 - Y4 <= 0
C: X25 - Y5 <= 0
C: X26 - Y6 <= 0
C: X27 - Y7 <= 0
C: X28 - Y8 <= 0
C: X31 - Y1 <= 0
C: X32 - Y2 <= 0
C: X33 - Y3 <= 0
C: X34 - Y4 <= 0
C: X35 - Y5 <= 0
C: X36 - Y6 <= 0
C: X37 - Y7 <= 0
C: X38 - Y8 <= 0
C: X41 - Y1 <= 0
C: X42 - Y2 <= 0
C: X43 - Y3 <= 0
C: X44 - Y4 <= 0
C: X45 - Y5 <= 0
C: X46 - Y6 <= 0
C: X47 - Y7 <= 0
C: X48 - Y8 <= 0
C: X51 - Y1 <= 0
C: X52 - Y2 <= 0
C: X53 - Y3 <= 0
C: X54 - Y4 <= 0
C: X55 - Y5 <= 0
C: X56 - Y6 <= 0
C: X57 - Y7 <= 0
C: X58 - Y8 <= 0
C: X61 - Y1 <= 0
C: X62 - Y2 <= 0
C: X63 - Y3 <= 0
C: X64 - Y4 <= 0
C: X65 - Y5 <= 0
C: X66 - Y6 <= 0
C: X67 - Y7 <= 0
C: X68 - Y8 <= 0
C: X71 - Y1 <= 0
C: X72 - Y2 <= 0
C: X73 - Y3 <= 0
C: X74 - Y4 <= 0
C: X75 - Y5 <= 0
C: X76 - Y6 <= 0
C: X77 - Y7 <= 0
C: X78 - Y8 <= 0
C: X81 - Y1 <= 0
C: X82 - Y2 <= 0
C: X83 - Y3 <= 0
C: X84 - Y4 <= 0
C: X85 - Y5 <= 0
C: X86 - Y6 <= 0
C: X87 - Y7 <= 0
C: X88 - Y8 <= 0

C: Y1 + Y2 + Y3 + Y4 + Y5 + Y6 + Y7 + Y8 = 2

Integer
X11 X12 X13 X14 X15 X16 X17 X18 
X21 X22 X23 X24 X25 X26 X27 X28 
X31 X32 X33 X34 X35 X36 X37 X38 
X41 X42 X43 X44 X45 X46 X47 X48 
X51 X52 X53 X54 X55 X56 X57 X58 
X61 X62 X63 X64 X65 X66 X67 X68 
X71 X72 X73 X74 X75 X76 X77 X78 
X81 X82 X83 X84 X85 X86 X87 X88 
Y1 Y2 Y3 Y4 Y5 Y6 Y7 Y8 

End